FILENAME:   /home/mcs001/s132664/testsets/IP/miplib2017/neos-1593097.mps.gz
SETTINGS:   settings_isopr_minimalindexbranching_avoidsubtreenodes
TIMELIMIT:  7200
OUTPUTNAME: final_miplib_symretope_if_extended_generating_set_cpx_v802__settings_isopr_minimalindexbranching_avoidsubtreenodes__2__
BINNAME:    bin/symmetries.linux.x86_64.gnu.opt.cpx
BASENAME:   neos-1593097.mps.gz
SEED:       2
@01 /home/mcs001/s132664/testsets/IP/miplib2017/neos-1593097.mps.gz ===========
@02 neos-1593097.mps.gz
@03 1686566774
SCIP version 8.0.2 [precision: 8 byte] [memory: block] [mode: optimized] [LP solver: CPLEX 20.1.0.0] [GitHash: 5f0473c]
Copyright (C) 2002-2022 Konrad-Zuse-Zentrum fuer Informationstechnik Berlin (ZIB)

Symmetry handling routines - (c) Marc Pfetsch, Thomas Rehn, Christopher Hojny.
[GitHash: a1587cb]


Turned off presolver <gateextraction>.
reading parameter file <../settings/settings_isopr_minimalindexbranching_avoidsubtreenodes.set> ...

Changed settings:
limits/time = 7200
limits/restarts = 0
randomization/randomseedshift = 2
constraints/orbitope/sepafreq = -1
constraints/orbitope/propfreq = 1
presolving/gateextraction/maxrounds = 0
propagating/isoprune/avoidsubtreenodes = TRUE
useisoprune = TRUE
usebranchfirst = TRUE


solving problem ...

original problem has 18460 variables (18200 bin, 0 int, 0 impl, 260 cont) and 798 constraints
presolving:
(round 1, fast)       52 del vars, 52 del conss, 260 add conss, 260 chg bounds, 0 chg sides, 0 chg coeffs, 0 upgd conss, 0 impls, 330 clqs
(round 2, fast)       260 del vars, 312 del conss, 260 add conss, 260 chg bounds, 0 chg sides, 0 chg coeffs, 0 upgd conss, 0 impls, 330 clqs
(round 3, fast)       260 del vars, 312 del conss, 260 add conss, 260 chg bounds, 208 chg sides, 0 chg coeffs, 0 upgd conss, 0 impls, 330 clqs
(round 4, exhaustive) 260 del vars, 520 del conss, 260 add conss, 260 chg bounds, 208 chg sides, 0 chg coeffs, 0 upgd conss, 0 impls, 330 clqs
(round 5, exhaustive) 260 del vars, 520 del conss, 260 add conss, 260 chg bounds, 208 chg sides, 0 chg coeffs, 538 upgd conss, 0 impls, 330 clqs
(round 6, medium)     6292 del vars, 520 del conss, 260 add conss, 260 chg bounds, 2912 chg sides, 2704 chg coeffs, 538 upgd conss, 0 impls, 330 clqs
(round 7, medium)     7072 del vars, 520 del conss, 260 add conss, 260 chg bounds, 3068 chg sides, 2860 chg coeffs, 538 upgd conss, 0 impls, 330 clqs
(round 8, medium)     10816 del vars, 728 del conss, 260 add conss, 260 chg bounds, 3068 chg sides, 2860 chg coeffs, 538 upgd conss, 0 impls, 226 clqs
   (1.6s) probing: 1000/7644 (13.1%) - 0 fixings, 0 aggregations, 41814 implications, 0 bound changes
   (1.6s) probing: 1001/7644 (13.1%) - 0 fixings, 0 aggregations, 41817 implications, 0 bound changes
   (1.6s) probing aborted: 1000/1000 successive useless probings
Required symmetry:			(1 bin, 0 int, 0 cont); (fixed: 0 bin, 1 int, 0 cont)
Time for symmetry detection:		0.11 	(matrix graph, 12464 nodes, 50128 edges)
Number of generators:			58 	(max: 1500)
Log10 of symmetry group order:		70.2
Number of vars moved by some symmetry:	7644
Total time for symmetry detection:	0.12

Turned off presolver <domcol>.
Turned off presolver <components>.

presolving (9 rounds: 9 fast, 6 medium, 3 exhaustive):
 10816 deleted vars, 728 deleted constraints, 260 added constraints, 260 tightened bounds, 0 added holes, 3068 changed sides, 2860 changed coefficients
 0 implications, 42043 cliques
presolved problem has 7644 variables (7644 bin, 0 int, 0 impl, 0 cont) and 331 constraints
    104 constraints of type <knapsack>
    226 constraints of type <setppc>
      1 constraints of type <symmetries>
transformed objective value is always integral (scale: 1)
Presolving Time: 1.71

 time | node  | left  |LP iter|LP it/n|mem/heur|mdpt |frac |vars |cons |cols |rows |cuts |confs|strbr|  dualbound   | primalbound  |  gap   
  1.9s|     1 |     0 |    90 |     - |   139M |   0 | 135 |7644 | 472 |7644 | 330 |   0 | 141 |   0 | 1.958100e+04 |      --      |    Inf 
  2.5s|     1 |     2 |  1262 |     - |   141M |   0 | 135 |7644 | 473 |7644 | 330 |   0 | 142 |   0 | 1.958100e+04 |      --      |    Inf 
 78.1s|   100 |    89 |  3692 |  24.5 |   149M |  41 |  66 |7644 | 589 |7644 | 330 |   0 | 258 |   0 | 1.958100e+04 |      --      |    Inf 
d 157s|   197 |   184 |  6334 |  25.9 |pscostdi|  41 |   - |7644 | 701 |7644 | 330 |   0 | 370 |   0 | 1.958100e+04 | 2.320400e+04 |  18.50%
  158s|   200 |   185 |  6365 |  25.6 |   155M |  41 |  74 |7644 | 703 |7644 | 330 |   0 | 372 |   0 | 1.958100e+04 | 2.320400e+04 |  18.50%
d 174s|   226 |   201 |  9858 |  38.2 |fracdivi|  41 |   - |7644 | 737 |7644 | 330 |   0 | 406 |   0 | 1.958100e+04 | 2.317100e+04 |  18.33%
  212s|   300 |   255 | 14964 |  45.8 |   168M |  41 |  90 |7644 | 871 |7644 | 330 |   0 | 540 |   0 | 1.958100e+04 | 2.317100e+04 |  18.33%
  261s|   400 |   327 | 22356 |  52.9 |   176M |  41 |  61 |7644 | 981 |7644 | 330 |   0 | 654 |   0 | 1.958100e+04 | 2.317100e+04 |  18.33%
  336s|   500 |   375 | 35657 |  68.9 |   180M |  41 |  68 |7644 |1427 |7644 | 330 |   0 |1122 |   0 | 1.958100e+04 | 2.317100e+04 |  18.33%
  401s|   600 |   437 | 46882 |  76.2 |   184M |  41 |   - |7644 |1959 |   0 |   0 |   0 |1672 |   0 | 1.958100e+04 | 2.317100e+04 |  18.33%
  460s|   700 |   495 | 53496 |  74.7 |   189M |  41 |  90 |7644 |2199 |7644 | 330 |   0 |1915 |   0 | 1.958100e+04 | 2.317100e+04 |  18.33%
  525s|   800 |   553 | 55322 |  67.7 |   190M |  41 |  64 |7644 |2331 |7644 | 330 |   0 |2054 |   0 | 1.958100e+04 | 2.317100e+04 |  18.33%
  579s|   900 |   619 | 61220 |  66.7 |   193M |  41 |  67 |7644 |2604 |7644 | 330 |   0 |2344 |   0 | 1.958100e+04 | 2.317100e+04 |  18.33%
  918s|  1000 |   651 | 63352 |  62.2 |   195M |  55 |   - |7644 |2978 |   0 |   0 |   0 |2727 |   0 | 1.958100e+04 | 2.317100e+04 |  18.33%
 1202s|  1100 |   687 | 64907 |  57.9 |   200M |  61 |   - |7644 |3716 |   0 |   0 |   0 |3468 |   0 | 1.958100e+04 | 2.317100e+04 |  18.33%
 time | node  | left  |LP iter|LP it/n|mem/heur|mdpt |frac |vars |cons |cols |rows |cuts |confs|strbr|  dualbound   | primalbound  |  gap   
 1480s|  1200 |   721 | 65541 |  53.6 |   202M |  61 |   - |7644 |3974 |   0 |   0 |   0 |3730 |   0 | 1.958100e+04 | 2.317100e+04 |  18.33%
 1708s|  1300 |   757 | 66010 |  49.8 |   204M |  61 |  61 |7644 |4182 |7644 | 330 |   0 |3945 |   0 | 1.958100e+04 | 2.317100e+04 |  18.33%
 1900s|  1400 |   797 | 66643 |  46.7 |   206M |  61 |  78 |7644 |4463 |7644 | 330 |   0 |4234 |   0 | 1.958100e+04 | 2.317100e+04 |  18.33%
 2143s|  1500 |   821 | 69385 |  45.4 |   207M |  61 |  59 |7644 |4778 |7644 | 330 |   0 |4561 |   0 | 1.958100e+04 | 2.317100e+04 |  18.33%
 2404s|  1600 |   845 | 69861 |  42.9 |   209M |  61 |  71 |7644 |5105 |7644 | 330 |   0 |4894 |   0 | 1.958100e+04 | 2.317100e+04 |  18.33%
 2587s|  1700 |   867 | 70295 |  40.6 |   210M |  61 |   - |7644 |5409 |   0 |   0 |   0 |5205 |   0 | 1.958100e+04 | 2.317100e+04 |  18.33%
 2951s|  1800 |   891 | 70807 |  38.7 |   212M |  61 |  54 |7644 |5732 |7644 | 330 |   0 |5557 |   0 | 1.958100e+04 | 2.317100e+04 |  18.33%
 3348s|  1900 |   897 | 71088 |  36.8 |   214M |  61 |  72 |7644 |6013 |7644 | 330 |   0 |5849 |   0 | 1.958100e+04 | 2.317100e+04 |  18.33%
 3544s|  2000 |   931 | 72480 |  35.6 |   217M |  61 |   - |7644 |6431 |   0 |   0 |   0 |6279 |   0 | 1.958100e+04 | 2.317100e+04 |  18.33%
 3825s|  2100 |   955 | 72894 |  34.1 |   218M |  61 |  58 |7644 |6688 |7644 | 330 |   0 |6562 |   0 | 1.958100e+04 | 2.317100e+04 |  18.33%
 4064s|  2200 |   977 | 73359 |  32.8 |   222M |  61 |   - |7644 |7024 |   0 |   0 |   0 |6906 |   0 | 1.958100e+04 | 2.317100e+04 |  18.33%
 4431s|  2300 |  1005 | 74736 |  32.0 |   225M |  79 |  85 |7644 |7481 |7644 | 330 |   0 |7374 |   0 | 1.958100e+04 | 2.317100e+04 |  18.33%
 4814s|  2400 |  1015 | 75057 |  30.8 |   228M |  79 |   - |7644 |7831 |   0 |   0 |   0 |7745 |   0 | 1.958100e+04 | 2.317100e+04 |  18.33%
 5205s|  2500 |  1041 | 75483 |  29.7 |   229M |  79 |  55 |7644 |8172 |7644 | 330 |   0 |8095 |   0 | 1.958100e+04 | 2.317100e+04 |  18.33%
 5353s|  2600 |  1081 | 76511 |  29.0 |   230M |  79 |   - |7644 |8473 |   0 |   0 |   0 |8412 |   0 | 1.958100e+04 | 2.317100e+04 |  18.33%
 time | node  | left  |LP iter|LP it/n|mem/heur|mdpt |frac |vars |cons |cols |rows |cuts |confs|strbr|  dualbound   | primalbound  |  gap   
 5834s|  2700 |  1091 | 77175 |  28.1 |   231M |  79 | 101 |7644 |8845 |7644 | 330 |   0 |8823 |   0 | 1.958100e+04 | 2.317100e+04 |  18.33%
 6095s|  2800 |  1139 | 78558 |  27.6 |   233M |  79 |  55 |7644 |9469 |7644 | 330 |   0 |9462 |   0 | 1.958100e+04 | 2.317100e+04 |  18.33%
 6379s|  2900 |  1181 | 79353 |  26.9 |   235M |  79 |  57 |7644 |9694 |7644 | 330 |   0 |9710 |   0 | 1.958100e+04 | 2.317100e+04 |  18.33%
 6617s|  3000 |  1209 | 80023 |  26.3 |   238M |  79 |  69 |7644 |  10k|7644 | 330 |   0 |  10k|   0 | 1.958100e+04 | 2.317100e+04 |  18.33%
 6940s|  3100 |  1237 | 81705 |  26.0 |   238M |  79 |  47 |7644 |  10k|7644 | 330 |   0 |  10k|   0 | 1.958100e+04 | 2.317100e+04 |  18.33%

SCIP Status        : solving was interrupted [time limit reached]
Solving Time (sec) : 7200.12
Solving Nodes      : 3194
Primal Bound       : +2.31710000000000e+04 (7 solutions)
Dual Bound         : +1.95810000000000e+04
Gap                : 18.33 %

Number of variables fixed to 0 by isomorphism pruning:	 76215
Number of variables fixed to 1 by isomorphism pruning:	     0
@04 1686573974
